(set-logic ALL)
(set-option :produce-models true)
(declare-sort BoundSet 0)
(declare-sort UnboundSet 0)
(declare-fun IsInBlack (BoundSet) Bool)
(declare-fun HasJob (BoundSet) Bool)
(declare-fun Works (BoundSet) Bool)
(assert (not (=> (and (exists ((a BoundSet)) (and (IsInBlack a) (HasJob a))) (and (forall ((c BoundSet)) (=> (Works c) (IsInBlack c))) (and (forall ((d BoundSet)) (=> (HasJob d) (Works d))) (forall ((e BoundSet)) (=> (Works e) (HasJob e)))))) (exists ((a BoundSet)) (and (IsInBlack a) (Works a))))))
(check-sat)
(get-model)